&CONTROL
  calculation = 'scf'
  etot_conv_thr =   9.8000000000d-04
  forc_conv_thr =   1.0000000000d-04
  outdir = './out/'
  pseudo_dir = '../pseudo/'
  tprnfor = .true.
/
&SYSTEM
  ecutrho =   6.0000000000d+02
  ecutwfc =   8.0000000000d+01
  ibrav = 0
  nat = 98
  ntyp = 3
  occupations = 'fixed'
/
&ELECTRONS
  diagonalization='david'
  conv_thr =   1.9600000000d-08
  electron_maxstep = 80
  mixing_beta =   4.0000000000d-01
/
ATOMIC_SPECIES
C      12.011 C.pbe-n-kjpaw_psl.1.0.0.UPF
H      1.00794 H_ONCV_PBE-1.0.oncvpsp.upf
O      15.9994 O.pbe-n-kjpaw_psl.0.1.UPF
ATOMIC_POSITIONS crystal
C            0.2222000000       0.6348500000       0.4381000000 
C            0.7778000000       0.3651500000       0.5619000000 
H            0.3235000000       0.6911000000       0.5198000000 
H            0.6765000000       0.3089000000       0.4802000000 
C            0.0588000000       0.6592700000       0.4499000000 
C            0.9412000000       0.3407300000       0.5501000000 
H            0.0462000000       0.6993000000       0.5350000000 
H            0.9538000000       0.3007000000       0.4650000000 
C            0.9399000000       0.6118900000       0.3146000000 
C            0.0601000000       0.3881100000       0.6854000000 
H            0.8258000000       0.6117000000       0.2840000000 
H            0.1742000000       0.3883000000       0.7160000000 
C            0.0279000000       0.5575600000       0.2185200000 
C            0.9721000000       0.4424400000       0.7814800000 
H            0.9645000000       0.5476000000       0.1129000000 
H            0.0355000000       0.4524000000       0.8871000000 
C            0.0956800000       0.4289700000       0.2582700000 
C            0.9043200000       0.5710300000       0.7417300000 
C            0.2231300000       0.4797700000       0.4013600000 
C            0.7768700000       0.5202300000       0.5986400000 
C            0.3131200000       0.3941800000       0.4786600000 
C            0.6868800000       0.6058200000       0.5213400000 
H            0.3966000000       0.4281000000       0.5745000000 
H            0.6034000000       0.5719000000       0.4255000000 
C            0.2728700000       0.2540800000       0.4060700000 
C            0.7271300000       0.7459200000       0.5939300000 
C            0.1445500000       0.2032700000       0.2639000000 
C            0.8554500000       0.7967300000       0.7361000000 
C            0.0520700000       0.2902100000       0.1872700000 
C            0.9479300000       0.7097900000       0.8127300000 
H            0.9653000000       0.2565000000       0.0930000000 
H            0.0347000000       0.7435000000       0.9070000000 
C            0.3392000000       0.1309200000       0.4546300000 
C            0.6608000000       0.8690800000       0.5453700000 
H            0.4521000000       0.1484000000       0.5350000000 
H            0.5479000000       0.8516000000       0.4650000000 
C            0.2031000000       0.0596900000       0.4799000000 
C            0.7969000000       0.9403100000       0.5201000000 
H            0.2426000000       0.9856000000       0.5224000000 
H            0.7574000000       0.0144000000       0.4776000000 
H            0.1681000000       0.1244000000       0.5444000000 
H            0.8319000000       0.8756000000       0.4556000000 
C            0.0605000000       0.0051300000       0.3241000000 
C            0.9395000000       0.9948700000       0.6759000000 
H            0.9612000000       0.0463000000       0.3172000000 
H            0.0388000000       0.9537000000       0.6828000000 
H            0.0337000000       0.9063000000       0.2963000000 
H            0.9663000000       0.0937000000       0.7037000000 
C            0.1316000000       0.0485500000       0.2261500000 
C            0.8684000000       0.9514500000       0.7738500000 
H            0.0760000000       0.9989000000       0.1208000000 
H            0.9240000000       0.0011000000       0.8792000000 
C            0.3163000000       0.0326500000       0.3076000000 
C            0.6837000000       0.9673500000       0.6924000000 
H            0.3322000000       0.9399000000       0.3127000000 
H            0.6678000000       0.0601000000       0.6873000000 
H            0.3855000000       0.0648000000       0.2674000000 
H            0.6145000000       0.9352000000       0.7326000000 
C            0.4281000000       0.7721800000       0.9989000000 
C            0.5719000000       0.2278200000       0.0011000000 
H            0.3398000000       0.8111000000       0.0224000000 
H            0.6602000000       0.1889000000       0.9776000000 
C            0.6015000000       0.8574000000       0.0861000000 
C            0.3985000000       0.1426000000       0.9139000000 
H            0.5943000000       0.9540000000       0.0964000000 
H            0.4057000000       0.0460000000       0.9036000000 
H            0.6566000000       0.8446000000       0.1836000000 
H            0.3434000000       0.1554000000       0.8164000000 
H            0.6410000000       0.9266000000       0.1750000000 
H            0.3590000000       0.0734000000       0.8250000000 
C            0.6889000000       0.8064000000       0.9998000000 
C            0.3111000000       0.1936000000       0.0002000000 
H            0.7862000000       0.7689000000       0.0556000000 
H            0.2138000000       0.2311000000       0.9444000000 
H            0.7242000000       0.8785000000       0.9687000000 
H            0.2758000000       0.1215000000       0.0313000000 
H            0.7982000000       0.8349000000       0.0201000000 
H            0.2018000000       0.1651000000       0.9799000000 
C            0.5619000000       0.6938000000       0.8659100000 
C            0.4381000000       0.3062000000       0.1340900000 
H            0.5858000000       0.6681000000       0.7797000000 
H            0.4142000000       0.3319000000       0.2203000000 
C            0.5364100000       0.5773900000       0.9243000000 
C            0.4635900000       0.4226100000       0.0757000000 
C            0.4506100000       0.6273400000       0.0089500000 
C            0.5493900000       0.3726600000       0.9910500000 
C            0.4131200000       0.5504500000       0.0865900000 
C            0.5868800000       0.4495500000       0.9134100000 
H            0.3568000000       0.5833000000       0.1432000000 
H            0.6432000000       0.4167000000       0.8568000000 
O            0.1805900000       0.6539100000       0.2944800000 
O            0.8194100000       0.3460900000       0.7055200000 
C            0.4054200000       0.7551800000       0.8434900000 
C            0.5945800000       0.2448200000       0.1565100000 
H            0.3061000000       0.6929000000       0.7698000000 
H            0.6939000000       0.3071000000       0.2302000000 
H            0.4072000000       0.8417000000       0.8210000000 
H            0.5928000000       0.1583000000       0.1790000000 
K_POINTS gamma

CELL_PARAMETERS angstrom
      8.9168000000       0.0000000000       0.0000000000
     -0.1985468450      10.1921663036       0.0000000000
     -4.3379703375      -2.7225751715       9.0589646228
