&CONTROL
  calculation = 'scf'
  etot_conv_thr =   2.0000000000d-04
  forc_conv_thr =   1.0000000000d-04
  outdir = './out/'
  pseudo_dir = '../pseudo/'
  tprnfor = .true.
/
&SYSTEM
  degauss =   1.4699723600d-02
  ecutrho =   4.0000000000d+02
  ecutwfc =   5.0000000000d+01
  ibrav = 0
  nat = 20
  ntyp = 3
  occupations = 'smearing'
  smearing = 'cold'
/
&ELECTRONS
  diagonalization='david'
  conv_thr =   4.0000000000d-09
  electron_maxstep = 80
  mixing_beta =   4.0000000000d-01
/
ATOMIC_SPECIES
Ba     137.33 Ba.pbe-spn-kjpaw_psl.1.0.0.UPF
C      12.011 C.pbe-n-kjpaw_psl.1.0.0.UPF
O      15.9994 O.pbe-n-kjpaw_psl.0.1.UPF
ATOMIC_POSITIONS crystal
Ba           0.2500000000       0.4163100000       0.7549000000 
Ba           0.2500000000       0.0836900000       0.2549000000 
Ba           0.7500000000       0.5836900000       0.2451000000 
Ba           0.7500000000       0.9163100000       0.7451000000 
C            0.2500000000       0.7570000000       0.9190000000 
C            0.2500000000       0.7430000000       0.4190000000 
C            0.7500000000       0.2430000000       0.0810000000 
C            0.7500000000       0.2570000000       0.5810000000 
O            0.2500000000       0.9011000000       0.9122000000 
O            0.2500000000       0.5989000000       0.4122000000 
O            0.7500000000       0.0989000000       0.0878000000 
O            0.7500000000       0.4011000000       0.5878000000 
O            0.4595000000       0.6839000000       0.9210000000 
O            0.0405000000       0.8161000000       0.4210000000 
O            0.9595000000       0.3161000000       0.0790000000 
O            0.5405000000       0.1839000000       0.5790000000 
O            0.5405000000       0.3161000000       0.0790000000 
O            0.9595000000       0.1839000000       0.5790000000 
O            0.0405000000       0.6839000000       0.9210000000 
O            0.4595000000       0.8161000000       0.4210000000 
K_POINTS automatic
6 4 5 0 0 0
CELL_PARAMETERS angstrom
      5.3126000000       0.0000000000       0.0000000000
      0.0000000000       8.8958000000       0.0000000000
      0.0000000000       0.0000000000       6.4284000000
