&CONTROL
  calculation = 'scf'
  etot_conv_thr =   3.2000000000d-04
  forc_conv_thr =   1.0000000000d-04
  outdir = './out/'
  pseudo_dir = '../pseudo/'
  tprnfor = .true.
/
&SYSTEM
  ecutrho =   8.0000000000d+02
  ecutwfc =   1.0000000000d+02
  ibrav = 0
  nat = 32
  ntyp = 3
  occupations = 'fixed'
/
&ELECTRONS
  diagonalization='david'
  conv_thr =   6.4000000000d-09
  electron_maxstep = 80
  mixing_beta =   4.0000000000d-01
/
ATOMIC_SPECIES
C      12.011 C.pbe-n-kjpaw_psl.1.0.0.UPF
Cl     35.4527 Cl.pbe-n-rrkjus_psl.1.0.0.UPF
H      1.00794 H_ONCV_PBE-1.0.oncvpsp.upf
ATOMIC_POSITIONS crystal
Cl           0.2130900000       0.9402800000       0.8006900000 
Cl           0.2869100000       0.4402800000       0.6993100000 
Cl           0.7869100000       0.0597200000       0.1993100000 
Cl           0.7130900000       0.5597200000       0.3006900000 
C            0.9030000000       0.8729000000       0.7158000000 
C            0.5970000000       0.3729000000       0.7842000000 
C            0.0970000000       0.1271000000       0.2842000000 
C            0.4030000000       0.6271000000       0.2158000000 
H            0.8960000000       0.8590000000       0.5850000000 
H            0.6040000000       0.3590000000       0.9150000000 
H            0.1040000000       0.1410000000       0.4150000000 
H            0.3960000000       0.6410000000       0.0850000000 
H            0.8100000000       0.9530000000       0.7460000000 
H            0.6900000000       0.4530000000       0.7540000000 
H            0.1900000000       0.0470000000       0.2540000000 
H            0.3100000000       0.5470000000       0.2460000000 
C            0.8492000000       0.7491000000       0.8223000000 
C            0.6508000000       0.2491000000       0.6777000000 
C            0.1508000000       0.2509000000       0.1777000000 
C            0.3492000000       0.7509000000       0.3223000000 
H            0.6980000000       0.7140000000       0.7740000000 
H            0.8020000000       0.2140000000       0.7260000000 
H            0.3020000000       0.2860000000       0.2260000000 
H            0.1980000000       0.7860000000       0.2740000000 
H            0.9840000000       0.6870000000       0.7890000000 
H            0.5160000000       0.1870000000       0.7110000000 
H            0.0160000000       0.3130000000       0.2110000000 
H            0.4840000000       0.8130000000       0.2890000000 
H            0.8580000000       0.7640000000       0.9560000000 
H            0.6420000000       0.2640000000       0.5440000000 
H            0.1420000000       0.2360000000       0.0440000000 
H            0.3580000000       0.7360000000       0.4560000000 
K_POINTS automatic
4 3 4 0 0 0
CELL_PARAMETERS angstrom
      5.3006000000       0.0000000000       0.0000000000
      0.0000000000       9.8562000000       0.0000000000
     -0.9724625595       0.0000000000       6.7710233215
